certificates/rado_a15_c147_N34.drat
-31 -34 0
d -31 -10 -34 0
10 -34 0
-34 0
31 0
-10 0
7 0
13 0
-11 0
28 0
14 0
29 0
16 0
8 0
-2 0
-9 0
-1 0
-4 0
5 0
20 0
6 0
12 0
21 0
22 0
27 0
23 0
0
